8396
1, 22, 21, 17, 7, 2, 42, 30, 29, 50, 20, 23, 31, 18, 3, 45, 19, 41, 8, 10, 9, 43, 33, 28, 27, 26, 47, 14, 13, 52, 11, 51, 12, 4, 25, 6, 15, 5, 24, 48, 38, 40, 39, 37, 46, 16, 44, 34, 36, 35, 49, 32
